(declare-const P_1_1_1 Bool)
(declare-const P_1_1_2 Bool)
(declare-const P_1_1_3 Bool)
(declare-const P_1_1_4 Bool)
(declare-const P_1_2_1 Bool)
(declare-const P_1_2_2 Bool)
(declare-const P_1_2_3 Bool)
(declare-const P_1_2_4 Bool)
(declare-const P_1_3_1 Bool)
(declare-const P_1_3_2 Bool)
(declare-const P_1_3_3 Bool)
(declare-const P_1_3_4 Bool)
(declare-const P_1_4_1 Bool)
(declare-const P_1_4_2 Bool)
(declare-const P_1_4_3 Bool)
(declare-const P_1_4_4 Bool)
(declare-const P_2_1_1 Bool)
(declare-const P_2_1_2 Bool)
(declare-const P_2_1_3 Bool)
(declare-const P_2_1_4 Bool)
(declare-const P_2_2_1 Bool)
(declare-const P_2_2_2 Bool)
(declare-const P_2_2_3 Bool)
(declare-const P_2_2_4 Bool)
(declare-const P_2_3_1 Bool)
(declare-const P_2_3_2 Bool)
(declare-const P_2_3_3 Bool)
(declare-const P_2_3_4 Bool)
(declare-const P_2_4_1 Bool)
(declare-const P_2_4_2 Bool)
(declare-const P_2_4_3 Bool)
(declare-const P_2_4_4 Bool)
(declare-const P_3_1_1 Bool)
(declare-const P_3_1_2 Bool)
(declare-const P_3_1_3 Bool)
(declare-const P_3_1_4 Bool)
(declare-const P_3_2_1 Bool)
(declare-const P_3_2_2 Bool)
(declare-const P_3_2_3 Bool)
(declare-const P_3_2_4 Bool)
(declare-const P_3_3_1 Bool)
(declare-const P_3_3_2 Bool)
(declare-const P_3_3_3 Bool)
(declare-const P_3_3_4 Bool)
(declare-const P_3_4_1 Bool)
(declare-const P_3_4_2 Bool)
(declare-const P_3_4_3 Bool)
(declare-const P_3_4_4 Bool)
(declare-const P_4_1_1 Bool)
(declare-const P_4_1_2 Bool)
(declare-const P_4_1_3 Bool)
(declare-const P_4_1_4 Bool)
(declare-const P_4_2_1 Bool)
(declare-const P_4_2_2 Bool)
(declare-const P_4_2_3 Bool)
(declare-const P_4_2_4 Bool)
(declare-const P_4_3_1 Bool)
(declare-const P_4_3_2 Bool)
(declare-const P_4_3_3 Bool)
(declare-const P_4_3_4 Bool)
(declare-const P_4_4_1 Bool)
(declare-const P_4_4_2 Bool)
(declare-const P_4_4_3 Bool)
(declare-const P_4_4_4 Bool)
(assert P_1_3_1)
(assert P_2_1_4)
(assert P_3_4_2)
(assert P_4_2_3)
(assert (or P_1_1_1 P_1_2_1 P_1_3_1 P_1_4_1))
(assert (or P_1_1_2 P_1_2_2 P_1_3_2 P_1_4_2))
(assert (or P_1_1_3 P_1_2_3 P_1_3_3 P_1_4_3))
(assert (or P_1_1_4 P_1_2_4 P_1_3_4 P_1_4_4))
(assert (or P_2_1_1 P_2_2_1 P_2_3_1 P_2_4_1))
(assert (or P_2_1_2 P_2_2_2 P_2_3_2 P_2_4_2))
(assert (or P_2_1_3 P_2_2_3 P_2_3_3 P_2_4_3))
(assert (or P_2_1_4 P_2_2_4 P_2_3_4 P_2_4_4))
(assert (or P_3_1_1 P_3_2_1 P_3_3_1 P_3_4_1))
(assert (or P_3_1_2 P_3_2_2 P_3_3_2 P_3_4_2))
(assert (or P_3_1_3 P_3_2_3 P_3_3_3 P_3_4_3))
(assert (or P_3_1_4 P_3_2_4 P_3_3_4 P_3_4_4))
(assert (or P_4_1_1 P_4_2_1 P_4_3_1 P_4_4_1))
(assert (or P_4_1_2 P_4_2_2 P_4_3_2 P_4_4_2))
(assert (or P_4_1_3 P_4_2_3 P_4_3_3 P_4_4_3))
(assert (or P_4_1_4 P_4_2_4 P_4_3_4 P_4_4_4))
(assert (or P_1_1_1 P_2_1_1 P_3_1_1 P_4_1_1))
(assert (or P_1_1_2 P_2_1_2 P_3_1_2 P_4_1_2))
(assert (or P_1_1_3 P_2_1_3 P_3_1_3 P_4_1_3))
(assert (or P_1_1_4 P_2_1_4 P_3_1_4 P_4_1_4))
(assert (or P_1_2_1 P_2_2_1 P_3_2_1 P_4_2_1))
(assert (or P_1_2_2 P_2_2_2 P_3_2_2 P_4_2_2))
(assert (or P_1_2_3 P_2_2_3 P_3_2_3 P_4_2_3))
(assert (or P_1_2_4 P_2_2_4 P_3_2_4 P_4_2_4))
(assert (or P_1_3_1 P_2_3_1 P_3_3_1 P_4_3_1))
(assert (or P_1_3_2 P_2_3_2 P_3_3_2 P_4_3_2))
(assert (or P_1_3_3 P_2_3_3 P_3_3_3 P_4_3_3))
(assert (or P_1_3_4 P_2_3_4 P_3_3_4 P_4_3_4))
(assert (or P_1_4_1 P_2_4_1 P_3_4_1 P_4_4_1))
(assert (or P_1_4_2 P_2_4_2 P_3_4_2 P_4_4_2))
(assert (or P_1_4_3 P_2_4_3 P_3_4_3 P_4_4_3))
(assert (or P_1_4_4 P_2_4_4 P_3_4_4 P_4_4_4))
(assert (or P_1_1_1 P_1_2_1 P_2_1_1 P_2_2_1))
(assert (or P_1_1_2 P_1_2_2 P_2_1_2 P_2_2_2))
(assert (or P_1_1_3 P_1_2_3 P_2_1_3 P_2_2_3))
(assert (or P_1_1_4 P_1_2_4 P_2_1_4 P_2_2_4))
(assert (or P_1_3_1 P_1_4_1 P_2_3_1 P_2_4_1))
(assert (or P_1_3_2 P_1_4_2 P_2_3_2 P_2_4_2))
(assert (or P_1_3_3 P_1_4_3 P_2_3_3 P_2_4_3))
(assert (or P_1_3_4 P_1_4_4 P_2_3_4 P_2_4_4))
(assert (or P_3_1_1 P_3_2_1 P_4_1_1 P_4_2_1))
(assert (or P_3_1_2 P_3_2_2 P_4_1_2 P_4_2_2))
(assert (or P_3_1_3 P_3_2_3 P_4_1_3 P_4_2_3))
(assert (or P_3_1_4 P_3_2_4 P_4_1_4 P_4_2_4))
(assert (or P_3_3_1 P_3_4_1 P_4_3_1 P_4_4_1))
(assert (or P_3_3_2 P_3_4_2 P_4_3_2 P_4_4_2))
(assert (or P_3_3_3 P_3_4_3 P_4_3_3 P_4_4_3))
(assert (or P_3_3_4 P_3_4_4 P_4_3_4 P_4_4_4))
(assert (or (not P_1_1_1) (not (or P_1_1_2 P_1_1_3 P_1_1_4))))
(assert (or (not P_1_1_2) (not (or P_1_1_1 P_1_1_3 P_1_1_4))))
(assert (or (not P_1_1_3) (not (or P_1_1_1 P_1_1_2 P_1_1_4))))
(assert (or (not P_1_1_4) (not (or P_1_1_1 P_1_1_2 P_1_1_3))))
(assert (or (not P_1_2_1) (not (or P_1_2_2 P_1_2_3 P_1_2_4))))
(assert (or (not P_1_2_2) (not (or P_1_2_1 P_1_2_3 P_1_2_4))))
(assert (or (not P_1_2_3) (not (or P_1_2_1 P_1_2_2 P_1_2_4))))
(assert (or (not P_1_2_4) (not (or P_1_2_1 P_1_2_2 P_1_2_3))))
(assert (or (not P_1_3_1) (not (or P_1_3_2 P_1_3_3 P_1_3_4))))
(assert (or (not P_1_3_2) (not (or P_1_3_1 P_1_3_3 P_1_3_4))))
(assert (or (not P_1_3_3) (not (or P_1_3_1 P_1_3_2 P_1_3_4))))
(assert (or (not P_1_3_4) (not (or P_1_3_1 P_1_3_2 P_1_3_3))))
(assert (or (not P_1_4_1) (not (or P_1_4_2 P_1_4_3 P_1_4_4))))
(assert (or (not P_1_4_2) (not (or P_1_4_1 P_1_4_3 P_1_4_4))))
(assert (or (not P_1_4_3) (not (or P_1_4_1 P_1_4_2 P_1_4_4))))
(assert (or (not P_1_4_4) (not (or P_1_4_1 P_1_4_2 P_1_4_3))))
(assert (or (not P_2_1_1) (not (or P_2_1_2 P_2_1_3 P_2_1_4))))
(assert (or (not P_2_1_2) (not (or P_2_1_1 P_2_1_3 P_2_1_4))))
(assert (or (not P_2_1_3) (not (or P_2_1_1 P_2_1_2 P_2_1_4))))
(assert (or (not P_2_1_4) (not (or P_2_1_1 P_2_1_2 P_2_1_3))))
(assert (or (not P_2_2_1) (not (or P_2_2_2 P_2_2_3 P_2_2_4))))
(assert (or (not P_2_2_2) (not (or P_2_2_1 P_2_2_3 P_2_2_4))))
(assert (or (not P_2_2_3) (not (or P_2_2_1 P_2_2_2 P_2_2_4))))
(assert (or (not P_2_2_4) (not (or P_2_2_1 P_2_2_2 P_2_2_3))))
(assert (or (not P_2_3_1) (not (or P_2_3_2 P_2_3_3 P_2_3_4))))
(assert (or (not P_2_3_2) (not (or P_2_3_1 P_2_3_3 P_2_3_4))))
(assert (or (not P_2_3_3) (not (or P_2_3_1 P_2_3_2 P_2_3_4))))
(assert (or (not P_2_3_4) (not (or P_2_3_1 P_2_3_2 P_2_3_3))))
(assert (or (not P_2_4_1) (not (or P_2_4_2 P_2_4_3 P_2_4_4))))
(assert (or (not P_2_4_2) (not (or P_2_4_1 P_2_4_3 P_2_4_4))))
(assert (or (not P_2_4_3) (not (or P_2_4_1 P_2_4_2 P_2_4_4))))
(assert (or (not P_2_4_4) (not (or P_2_4_1 P_2_4_2 P_2_4_3))))
(assert (or (not P_3_1_1) (not (or P_3_1_2 P_3_1_3 P_3_1_4))))
(assert (or (not P_3_1_2) (not (or P_3_1_1 P_3_1_3 P_3_1_4))))
(assert (or (not P_3_1_3) (not (or P_3_1_1 P_3_1_2 P_3_1_4))))
(assert (or (not P_3_1_4) (not (or P_3_1_1 P_3_1_2 P_3_1_3))))
(assert (or (not P_3_2_1) (not (or P_3_2_2 P_3_2_3 P_3_2_4))))
(assert (or (not P_3_2_2) (not (or P_3_2_1 P_3_2_3 P_3_2_4))))
(assert (or (not P_3_2_3) (not (or P_3_2_1 P_3_2_2 P_3_2_4))))
(assert (or (not P_3_2_4) (not (or P_3_2_1 P_3_2_2 P_3_2_3))))
(assert (or (not P_3_3_1) (not (or P_3_3_2 P_3_3_3 P_3_3_4))))
(assert (or (not P_3_3_2) (not (or P_3_3_1 P_3_3_3 P_3_3_4))))
(assert (or (not P_3_3_3) (not (or P_3_3_1 P_3_3_2 P_3_3_4))))
(assert (or (not P_3_3_4) (not (or P_3_3_1 P_3_3_2 P_3_3_3))))
(assert (or (not P_3_4_1) (not (or P_3_4_2 P_3_4_3 P_3_4_4))))
(assert (or (not P_3_4_2) (not (or P_3_4_1 P_3_4_3 P_3_4_4))))
(assert (or (not P_3_4_3) (not (or P_3_4_1 P_3_4_2 P_3_4_4))))
(assert (or (not P_3_4_4) (not (or P_3_4_1 P_3_4_2 P_3_4_3))))
(assert (or (not P_4_1_1) (not (or P_4_1_2 P_4_1_3 P_4_1_4))))
(assert (or (not P_4_1_2) (not (or P_4_1_1 P_4_1_3 P_4_1_4))))
(assert (or (not P_4_1_3) (not (or P_4_1_1 P_4_1_2 P_4_1_4))))
(assert (or (not P_4_1_4) (not (or P_4_1_1 P_4_1_2 P_4_1_3))))
(assert (or (not P_4_2_1) (not (or P_4_2_2 P_4_2_3 P_4_2_4))))
(assert (or (not P_4_2_2) (not (or P_4_2_1 P_4_2_3 P_4_2_4))))
(assert (or (not P_4_2_3) (not (or P_4_2_1 P_4_2_2 P_4_2_4))))
(assert (or (not P_4_2_4) (not (or P_4_2_1 P_4_2_2 P_4_2_3))))
(assert (or (not P_4_3_1) (not (or P_4_3_2 P_4_3_3 P_4_3_4))))
(assert (or (not P_4_3_2) (not (or P_4_3_1 P_4_3_3 P_4_3_4))))
(assert (or (not P_4_3_3) (not (or P_4_3_1 P_4_3_2 P_4_3_4))))
(assert (or (not P_4_3_4) (not (or P_4_3_1 P_4_3_2 P_4_3_3))))
(assert (or (not P_4_4_1) (not (or P_4_4_2 P_4_4_3 P_4_4_4))))
(assert (or (not P_4_4_2) (not (or P_4_4_1 P_4_4_3 P_4_4_4))))
(assert (or (not P_4_4_3) (not (or P_4_4_1 P_4_4_2 P_4_4_4))))
(assert (or (not P_4_4_4) (not (or P_4_4_1 P_4_4_2 P_4_4_3))))
(check-sat)
(get-model)